80
raw_data/rcpsp/CV.xlsx cv80
Time limit set to 60 seconds
Running CP solver
/home/omastto1/General-Optimization-Solver/src/solvers/rcpsp.py:31(stream:48:6): Warning: Cumulative expression 'pulse': height is zero, expression is zero everywhere.
                                                                                            VarCumulAtom_97 = pulse("0", 0)
/home/omastto1/General-Optimization-Solver/src/solvers/rcpsp.py:31(stream:48:67): Warning: Cumulative expression 'pulse': height is zero, expression is zero everywhere.
                                                                                             VarCumulAtom_101 = pulse("4", 0)
/home/omastto1/General-Optimization-Solver/src/solvers/rcpsp.py:31(stream:48:466): Warning: Cumulative expression 'pulse': height is zero, expression is zero everywhere.
                                                                                              VarCumulAtom_126 = pulse("29", 0)
/home/omastto1/General-Optimization-Solver/src/solvers/rcpsp.py:31(stream:49:6): Warning: Cumulative expression 'pulse': height is zero, expression is zero everywhere.
                                                                                            VarCumulAtom_130 = pulse("0", 0)
/home/omastto1/General-Optimization-Solver/src/solvers/rcpsp.py:31(stream:49:472): Warning: Cumulative expression 'pulse': height is zero, expression is zero everywhere.
                                                                                              VarCumulAtom_159 = pulse("29", 0)
/home/omastto1/General-Optimization-Solver/src/solvers/rcpsp.py:31(stream:50:6): Warning: Cumulative expression 'pulse': height is zero, expression is zero everywhere.
                                                                                            VarCumulAtom_163 = pulse("0", 0)
/home/omastto1/General-Optimization-Solver/src/solvers/rcpsp.py:31(stream:50:468): Warning: Cumulative expression 'pulse': height is zero, expression is zero everywhere.
                                                                                              VarCumulAtom_192 = pulse("29", 0)
 ! --------------------------------------------------- CP Optimizer 20.1.0.0 --
 ! Minimization problem - 31 variables, 57 constraints
 ! TimeLimit            = 60
 ! Workers              = 14
 ! LogVerbosity         = Terse
 ! Initial process time : 0.00s (0.00s extraction + 0.00s propagation)
 !  . Log search space  : 167.1 (before), 167.1 (after)
 !  . Memory usage      : 616.5 kB (before), 616.5 kB (after)
 ! Using parallel search with 14 workers.
 ! ----------------------------------------------------------------------------
 !          Best Branches  Non-fixed    W       Branch decision
                        0         31                 -
 + New bound is 28
 ! Using iterative diving.
 ! Using temporal relaxation.
 *            95       63  1.02s        1      (gap is 70.53%)
 *            85      125  1.02s        1      (gap is 67.06%)
 *            84      187  1.02s        1      (gap is 66.67%)
 *            81      372  1.02s        1      (gap is 65.43%)
 *            77     1914  1.02s        1      (gap is 63.64%)
              77     6121          3    1   F        -
 + New bound is 64 (gap is 16.88%)
 ! Using failure-directed search.
 *            76     7491  1.02s        2      (gap is 15.79%)
 *            75     7771  1.02s        2      (gap is 14.67%)
 *            74     8208  1.02s        2      (gap is 13.51%)
 *            73     9297  1.02s        2      (gap is 12.33%)
 *            72     6522  1.02s        7      (gap is 11.11%)
              72    54395         18    1   F     3 >= startOf(28)
 + New bound is 65 (gap is 9.72%)
 ! ----------------------------------------------------------------------------
 ! Search terminated by limit, 10 solutions found.
 ! Best objective         : 72 (gap is 9.72%)
 ! Best bound             : 65
 ! ----------------------------------------------------------------------------
 ! Number of branches     : 8643656
 ! Number of fails        : 2383790
 ! Total memory usage     : 10.0 MB (9.9 MB CP Optimizer + 0.1 MB Concert)
 ! Time spent in solve    : 60.01s (60.01s engine + 0.00s extraction)
 ! Search speed (br. / s) : 144036.9
 ! ----------------------------------------------------------------------------
(65,)
(0.0972222,)
(72,)
Objective value: 72
Solution is 1.4 % worse than the lower bound.
Feasible solution found
